Code 2834
Dimension, Median 
   128       16     
 Facility, Client, Transportation Cost
     1        1           1
     1        2           4
     1        3           4
     1        5           4
     1        9           0
     1       17           0
     1       33           2
     1       65           1
     2        1           4
     2        2           3
     2        4           4
     2        6           4
     2       10           2
     2       18           1
     2       34           2
     2       66           2
     3        1           2
     3        3           3
     3        4           2
     3        7           0
     3       11           1
     3       19           0
     3       35           2
     3       67           2
     4        2           0
     4        3           3
     4        4           2
     4        8           3
     4       12           4
     4       20           0
     4       36           3
     4       68           4
     5        1           3
     5        5           4
     5        6           3
     5        7           1
     5       13           4
     5       21           0
     5       37           3
     5       69           2
     6        2           2
     6        5           4
     6        6           0
     6        8           1
     6       14           1
     6       22           0
     6       38           1
     6       70           4
     7        3           4
     7        5           2
     7        7           1
     7        8           0
     7       15           2
     7       23           0
     7       39           0
     7       71           4
     8        4           2
     8        6           2
     8        7           1
     8        8           1
     8       16           1
     8       24           1
     8       40           2
     8       72           3
     9        1           3
     9        9           2
     9       10           0
     9       11           0
     9       13           0
     9       25           2
     9       41           4
     9       73           4
    10        2           3
    10        9           3
    10       10           4
    10       12           3
    10       14           3
    10       26           4
    10       42           0
    10       74           0
    11        3           3
    11        9           0
    11       11           3
    11       12           4
    11       15           4
    11       27           4
    11       43           2
    11       75           4
    12        4           2
    12       10           0
    12       11           0
    12       12           0
    12       16           0
    12       28           4
    12       44           1
    12       76           2
    13        5           0
    13        9           3
    13       13           2
    13       14           1
    13       15           2
    13       29           1
    13       45           0
    13       77           2
    14        6           0
    14       10           2
    14       13           4
    14       14           1
    14       16           3
    14       30           0
    14       46           1
    14       78           1
    15        7           0
    15       11           4
    15       13           1
    15       15           1
    15       16           1
    15       31           4
    15       47           3
    15       79           3
    16        8           4
    16       12           2
    16       14           2
    16       15           4
    16       16           2
    16       32           3
    16       48           4
    16       80           1
    17        1           1
    17       17           3
    17       18           2
    17       19           0
    17       21           3
    17       25           0
    17       49           4
    17       81           2
    18        2           4
    18       17           1
    18       18           3
    18       20           0
    18       22           0
    18       26           3
    18       50           1
    18       82           3
    19        3           1
    19       17           2
    19       19           4
    19       20           0
    19       23           1
    19       27           0
    19       51           0
    19       83           4
    20        4           1
    20       18           4
    20       19           3
    20       20           0
    20       24           4
    20       28           4
    20       52           1
    20       84           1
    21        5           2
    21       17           4
    21       21           4
    21       22           4
    21       23           1
    21       29           1
    21       53           1
    21       85           3
    22        6           0
    22       18           2
    22       21           3
    22       22           1
    22       24           4
    22       30           3
    22       54           1
    22       86           1
    23        7           1
    23       19           3
    23       21           1
    23       23           3
    23       24           1
    23       31           0
    23       55           2
    23       87           1
    24        8           3
    24       20           0
    24       22           1
    24       23           1
    24       24           0
    24       32           1
    24       56           1
    24       88           4
    25        9           3
    25       17           1
    25       25           2
    25       26           2
    25       27           3
    25       29           3
    25       57           0
    25       89           1
    26       10           3
    26       18           0
    26       25           2
    26       26           3
    26       28           4
    26       30           3
    26       58           4
    26       90           4
    27       11           1
    27       19           0
    27       25           0
    27       27           1
    27       28           4
    27       31           1
    27       59           4
    27       91           1
    28       12           4
    28       20           1
    28       26           1
    28       27           2
    28       28           0
    28       32           3
    28       60           3
    28       92           1
    29       13           1
    29       21           4
    29       25           1
    29       29           2
    29       30           3
    29       31           2
    29       61           0
    29       93           4
    30       14           2
    30       22           0
    30       26           0
    30       29           3
    30       30           4
    30       32           4
    30       62           1
    30       94           0
    31       15           4
    31       23           2
    31       27           2
    31       29           1
    31       31           3
    31       32           0
    31       63           4
    31       95           0
    32       16           3
    32       24           1
    32       28           3
    32       30           1
    32       31           1
    32       32           2
    32       64           3
    32       96           2
    33        1           0
    33       33           2
    33       34           0
    33       35           1
    33       37           1
    33       41           0
    33       49           1
    33       97           2
    34        2           0
    34       33           3
    34       34           4
    34       36           1
    34       38           3
    34       42           3
    34       50           4
    34       98           1
    35        3           3
    35       33           2
    35       35           2
    35       36           4
    35       39           4
    35       43           2
    35       51           0
    35       99           3
    36        4           2
    36       34           0
    36       35           3
    36       36           1
    36       40           2
    36       44           1
    36       52           2
    36      100           3
    37        5           3
    37       33           3
    37       37           0
    37       38           2
    37       39           2
    37       45           1
    37       53           1
    37      101           0
    38        6           1
    38       34           0
    38       37           0
    38       38           4
    38       40           4
    38       46           3
    38       54           0
    38      102           4
    39        7           2
    39       35           0
    39       37           0
    39       39           0
    39       40           0
    39       47           1
    39       55           3
    39      103           1
    40        8           3
    40       36           0
    40       38           0
    40       39           3
    40       40           3
    40       48           4
    40       56           2
    40      104           0
    41        9           4
    41       33           0
    41       41           1
    41       42           0
    41       43           1
    41       45           3
    41       57           1
    41      105           3
    42       10           0
    42       34           0
    42       41           3
    42       42           3
    42       44           1
    42       46           3
    42       58           1
    42      106           2
    43       11           2
    43       35           4
    43       41           1
    43       43           4
    43       44           3
    43       47           4
    43       59           0
    43      107           4
    44       12           3
    44       36           0
    44       42           2
    44       43           1
    44       44           3
    44       48           0
    44       60           3
    44      108           3
    45       13           0
    45       37           4
    45       41           4
    45       45           1
    45       46           4
    45       47           3
    45       61           2
    45      109           2
    46       14           4
    46       38           2
    46       42           2
    46       45           1
    46       46           2
    46       48           1
    46       62           2
    46      110           0
    47       15           4
    47       39           2
    47       43           3
    47       45           0
    47       47           2
    47       48           4
    47       63           0
    47      111           3
    48       16           1
    48       40           1
    48       44           0
    48       46           0
    48       47           1
    48       48           2
    48       64           1
    48      112           3
    49       17           3
    49       33           2
    49       49           1
    49       50           0
    49       51           4
    49       53           4
    49       57           1
    49      113           3
    50       18           1
    50       34           0
    50       49           3
    50       50           3
    50       52           4
    50       54           3
    50       58           3
    50      114           3
    51       19           0
    51       35           4
    51       49           2
    51       51           2
    51       52           2
    51       55           1
    51       59           2
    51      115           2
    52       20           0
    52       36           3
    52       50           1
    52       51           1
    52       52           2
    52       56           3
    52       60           2
    52      116           1
    53       21           4
    53       37           4
    53       49           3
    53       53           3
    53       54           1
    53       55           3
    53       61           1
    53      117           1
    54       22           4
    54       38           3
    54       50           2
    54       53           0
    54       54           1
    54       56           3
    54       62           2
    54      118           1
    55       23           4
    55       39           4
    55       51           4
    55       53           2
    55       55           0
    55       56           4
    55       63           4
    55      119           2
    56       24           1
    56       40           2
    56       52           3
    56       54           3
    56       55           3
    56       56           2
    56       64           1
    56      120           3
    57       25           0
    57       41           3
    57       49           3
    57       57           1
    57       58           1
    57       59           0
    57       61           1
    57      121           2
    58       26           3
    58       42           1
    58       50           0
    58       57           1
    58       58           4
    58       60           4
    58       62           2
    58      122           0
    59       27           1
    59       43           1
    59       51           2
    59       57           3
    59       59           0
    59       60           1
    59       63           4
    59      123           2
    60       28           0
    60       44           4
    60       52           3
    60       58           2
    60       59           4
    60       60           4
    60       64           0
    60      124           4
    61       29           4
    61       45           4
    61       53           3
    61       57           1
    61       61           0
    61       62           3
    61       63           0
    61      125           1
    62       30           3
    62       46           3
    62       54           4
    62       58           2
    62       61           1
    62       62           1
    62       64           1
    62      126           3
    63       31           0
    63       47           4
    63       55           4
    63       59           3
    63       61           0
    63       63           4
    63       64           3
    63      127           2
    64       32           0
    64       48           4
    64       56           4
    64       60           1
    64       62           3
    64       63           1
    64       64           4
    64      128           1
    65        1           2
    65       65           1
    65       66           1
    65       67           3
    65       69           2
    65       73           3
    65       81           2
    65       97           2
    66        2           0
    66       65           4
    66       66           1
    66       68           0
    66       70           3
    66       74           3
    66       82           4
    66       98           2
    67        3           4
    67       65           2
    67       67           3
    67       68           2
    67       71           2
    67       75           3
    67       83           2
    67       99           3
    68        4           3
    68       66           3
    68       67           0
    68       68           0
    68       72           3
    68       76           2
    68       84           3
    68      100           0
    69        5           2
    69       65           3
    69       69           1
    69       70           2
    69       71           0
    69       77           0
    69       85           0
    69      101           2
    70        6           2
    70       66           3
    70       69           0
    70       70           4
    70       72           3
    70       78           2
    70       86           2
    70      102           1
    71        7           0
    71       67           0
    71       69           2
    71       71           1
    71       72           0
    71       79           0
    71       87           0
    71      103           3
    72        8           1
    72       68           3
    72       70           0
    72       71           0
    72       72           1
    72       80           2
    72       88           0
    72      104           4
    73        9           1
    73       65           0
    73       73           1
    73       74           3
    73       75           1
    73       77           3
    73       89           1
    73      105           0
    74       10           3
    74       66           0
    74       73           1
    74       74           1
    74       76           1
    74       78           0
    74       90           4
    74      106           3
    75       11           1
    75       67           2
    75       73           1
    75       75           1
    75       76           0
    75       79           0
    75       91           3
    75      107           1
    76       12           0
    76       68           3
    76       74           4
    76       75           0
    76       76           1
    76       80           0
    76       92           4
    76      108           4
    77       13           3
    77       69           1
    77       73           0
    77       77           2
    77       78           2
    77       79           4
    77       93           0
    77      109           0
    78       14           2
    78       70           1
    78       74           0
    78       77           4
    78       78           0
    78       80           2
    78       94           3
    78      110           4
    79       15           1
    79       71           2
    79       75           4
    79       77           2
    79       79           1
    79       80           3
    79       95           1
    79      111           3
    80       16           0
    80       72           1
    80       76           0
    80       78           1
    80       79           4
    80       80           1
    80       96           0
    80      112           2
    81       17           4
    81       65           1
    81       81           4
    81       82           2
    81       83           0
    81       85           2
    81       89           3
    81      113           2
    82       18           1
    82       66           4
    82       81           4
    82       82           4
    82       84           4
    82       86           3
    82       90           4
    82      114           3
    83       19           2
    83       67           2
    83       81           0
    83       83           3
    83       84           2
    83       87           4
    83       91           4
    83      115           2
    84       20           1
    84       68           2
    84       82           0
    84       83           4
    84       84           3
    84       88           0
    84       92           1
    84      116           1
    85       21           4
    85       69           4
    85       81           1
    85       85           1
    85       86           1
    85       87           0
    85       93           4
    85      117           1
    86       22           4
    86       70           0
    86       82           3
    86       85           3
    86       86           4
    86       88           4
    86       94           1
    86      118           3
    87       23           0
    87       71           3
    87       83           0
    87       85           2
    87       87           2
    87       88           3
    87       95           1
    87      119           1
    88       24           4
    88       72           3
    88       84           4
    88       86           0
    88       87           4
    88       88           1
    88       96           0
    88      120           2
    89       25           1
    89       73           0
    89       81           2
    89       89           0
    89       90           4
    89       91           4
    89       93           1
    89      121           0
    90       26           1
    90       74           3
    90       82           1
    90       89           4
    90       90           2
    90       92           0
    90       94           2
    90      122           4
    91       27           3
    91       75           2
    91       83           4
    91       89           3
    91       91           0
    91       92           4
    91       95           0
    91      123           0
    92       28           0
    92       76           4
    92       84           2
    92       90           1
    92       91           4
    92       92           2
    92       96           3
    92      124           4
    93       29           2
    93       77           4
    93       85           3
    93       89           2
    93       93           2
    93       94           0
    93       95           3
    93      125           0
    94       30           0
    94       78           0
    94       86           3
    94       90           0
    94       93           2
    94       94           4
    94       96           2
    94      126           0
    95       31           3
    95       79           3
    95       87           3
    95       91           3
    95       93           0
    95       95           4
    95       96           3
    95      127           4
    96       32           3
    96       80           3
    96       88           1
    96       92           3
    96       94           0
    96       95           2
    96       96           4
    96      128           2
    97       33           3
    97       65           0
    97       97           0
    97       98           2
    97       99           4
    97      101           3
    97      105           4
    97      113           4
    98       34           0
    98       66           4
    98       97           4
    98       98           4
    98      100           0
    98      102           2
    98      106           4
    98      114           4
    99       35           2
    99       67           2
    99       97           3
    99       99           4
    99      100           0
    99      103           4
    99      107           1
    99      115           3
   100       36           1
   100       68           1
   100       98           3
   100       99           3
   100      100           2
   100      104           4
   100      108           3
   100      116           0
   101       37           1
   101       69           4
   101       97           0
   101      101           2
   101      102           3
   101      103           1
   101      109           3
   101      117           0
   102       38           2
   102       70           2
   102       98           0
   102      101           4
   102      102           4
   102      104           0
   102      110           3
   102      118           4
   103       39           3
   103       71           2
   103       99           2
   103      101           4
   103      103           3
   103      104           1
   103      111           4
   103      119           4
   104       40           0
   104       72           4
   104      100           0
   104      102           4
   104      103           2
   104      104           0
   104      112           0
   104      120           0
   105       41           0
   105       73           0
   105       97           4
   105      105           0
   105      106           2
   105      107           1
   105      109           2
   105      121           3
   106       42           3
   106       74           3
   106       98           2
   106      105           4
   106      106           0
   106      108           4
   106      110           0
   106      122           1
   107       43           4
   107       75           1
   107       99           0
   107      105           2
   107      107           4
   107      108           2
   107      111           3
   107      123           4
   108       44           0
   108       76           4
   108      100           3
   108      106           4
   108      107           0
   108      108           0
   108      112           3
   108      124           1
   109       45           1
   109       77           4
   109      101           4
   109      105           2
   109      109           0
   109      110           4
   109      111           3
   109      125           3
   110       46           0
   110       78           3
   110      102           2
   110      106           3
   110      109           2
   110      110           1
   110      112           3
   110      126           0
   111       47           3
   111       79           0
   111      103           1
   111      107           4
   111      109           2
   111      111           1
   111      112           1
   111      127           0
   112       48           3
   112       80           2
   112      104           2
   112      108           4
   112      110           2
   112      111           3
   112      112           4
   112      128           2
   113       49           2
   113       81           0
   113       97           4
   113      113           1
   113      114           2
   113      115           0
   113      117           2
   113      121           0
   114       50           3
   114       82           3
   114       98           0
   114      113           1
   114      114           0
   114      116           3
   114      118           2
   114      122           2
   115       51           4
   115       83           4
   115       99           2
   115      113           0
   115      115           3
   115      116           4
   115      119           0
   115      123           1
   116       52           2
   116       84           1
   116      100           4
   116      114           3
   116      115           2
   116      116           1
   116      120           1
   116      124           4
   117       53           2
   117       85           0
   117      101           0
   117      113           1
   117      117           3
   117      118           2
   117      119           2
   117      125           1
   118       54           1
   118       86           3
   118      102           0
   118      114           1
   118      117           1
   118      118           3
   118      120           2
   118      126           4
   119       55           0
   119       87           4
   119      103           2
   119      115           0
   119      117           1
   119      119           3
   119      120           3
   119      127           2
   120       56           2
   120       88           2
   120      104           3
   120      116           1
   120      118           2
   120      119           2
   120      120           3
   120      128           2
   121       57           3
   121       89           2
   121      105           3
   121      113           4
   121      121           3
   121      122           3
   121      123           0
   121      125           3
   122       58           4
   122       90           3
   122      106           4
   122      114           4
   122      121           4
   122      122           0
   122      124           3
   122      126           3
   123       59           3
   123       91           3
   123      107           4
   123      115           2
   123      121           1
   123      123           0
   123      124           0
   123      127           2
   124       60           1
   124       92           2
   124      108           3
   124      116           0
   124      122           0
   124      123           2
   124      124           2
   124      128           0
   125       61           3
   125       93           4
   125      109           0
   125      117           3
   125      121           1
   125      125           4
   125      126           2
   125      127           2
   126       62           0
   126       94           0
   126      110           0
   126      118           0
   126      122           4
   126      125           2
   126      126           3
   126      128           3
   127       63           3
   127       95           0
   127      111           3
   127      119           4
   127      123           3
   127      125           0
   127      127           3
   127      128           1
   128       64           2
   128       96           4
   128      112           4
   128      120           3
   128      124           1
   128      126           4
   128      127           4
   128      128           1
